instances/knapsack/discrete_knapsack_uncertainty/knapsack_100_17.lp
\ Model knapsack_100_17
\ LP format - for model browsing. Use MPS format to capture full model detail.
\ Signature: 0x98b4e0718ea0846a
Minimize
  - 7 x[0] - 23 x[1] - 57 x[2] - 65 x[3] - 38 x[4] - 54 x[5] - 30 x[6]
   - 4 x[7] - 95 x[8] - 51 x[9] - 56 x[10] - 76 x[11] - 100 x[12]
   - 67 x[13] - 48 x[14] - 57 x[15] - 71 x[16] - 83 x[17] - 75 x[18]
   - 18 x[19] - 42 x[20] - 52 x[21] - 9 x[22] - 57 x[23] - 22 x[24]
   - 67 x[25] - 33 x[26] - 96 x[27] - 47 x[28] - x[29] - 74 x[30]
   - 69 x[31] - 81 x[32] - 80 x[33] - 8 x[34] - 26 x[35] - 18 x[36]
   - 100 x[37] - 19 x[38] - 16 x[39] - 49 x[40] - 14 x[41] - 70 x[42]
   - 72 x[43] - 43 x[44] - 44 x[45] - 53 x[46] - 49 x[47] - 73 x[48]
   - 54 x[49] - 88 x[50] - 67 x[51] - 28 x[52] - 18 x[53] - 45 x[54]
   - 55 x[55] - 51 x[56] - 65 x[57] - 13 x[58] - 44 x[59] - 61 x[60]
   - 15 x[61] - 34 x[62] - 90 x[63] - 35 x[64] - 70 x[65] - 74 x[66]
   - 50 x[67] - 5 x[68] - 50 x[69] - 22 x[70] - 24 x[71] - 34 x[72]
   - 74 x[73] - 11 x[74] - 75 x[75] - 39 x[76] - 86 x[77] - 61 x[78]
   - 52 x[79] - 44 x[80] - 43 x[81] - 74 x[82] - 83 x[83] - 22 x[84]
   - 45 x[85] - 55 x[86] - 44 x[87] - 65 x[88] - 47 x[89] - 63 x[90]
   - 98 x[91] - 6 x[92] - 69 x[93] - 49 x[94] - 39 x[95] - 46 x[96]
   - 29 x[97] - 21 x[98] - 37 x[99]
Subject To
 primal_upper: 86 x[0] + 27 x[1] + 77 x[2] + 34 x[3] + 43 x[4] + 84 x[5]
   + 96 x[6] + 98 x[7] + 16 x[8] + 17 x[9] + 82 x[10] + 82 x[11] + 55 x[12]
   + 51 x[13] + 63 x[14] + 27 x[15] + 68 x[16] + 55 x[17] + 12 x[18]
   + 33 x[19] + 52 x[20] + 34 x[21] + 19 x[22] + 41 x[23] + 59 x[24]
   + 27 x[25] + 81 x[26] + 62 x[27] + 56 x[28] + 94 x[29] + 88 x[30]
   + 34 x[31] + 2 x[32] + 20 x[33] + 87 x[34] + 44 x[35] + 7 x[36]
   + 47 x[37] + 59 x[38] + 53 x[39] + 38 x[40] + 80 x[41] + 33 x[42]
   + 4 x[43] + 94 x[44] + 41 x[45] + 36 x[46] + 12 x[47] + 90 x[48]
   + 15 x[49] + 37 x[50] + 55 x[51] + 68 x[52] + 59 x[53] + 63 x[54]
   + 58 x[55] + 44 x[56] + 33 x[57] + 91 x[58] + 29 x[59] + 95 x[60]
   + 29 x[61] + 50 x[62] + 49 x[63] + 38 x[64] + 83 x[65] + 3 x[66]
   + 85 x[67] + 11 x[68] + 64 x[69] + 68 x[70] + 64 x[71] + 81 x[72]
   + 90 x[73] + 34 x[74] + 95 x[75] + 81 x[76] + 58 x[77] + 27 x[78]
   + 97 x[79] + 20 x[80] + 8 x[81] + 21 x[82] + 40 x[83] + 40 x[84]
   + 40 x[85] + 62 x[86] + 71 x[87] + 29 x[88] + 42 x[89] + 19 x[90]
   + 91 x[91] + 55 x[92] + 26 x[93] + 59 x[94] + 68 x[95] + 48 x[96]
   + 79 x[97] + 79 x[98] + 23 x[99] + 8.6 r[0] + 2.7 r[1] + 7.7 r[2]
   + 3.4 r[3] + 4.3 r[4] + 8.4 r[5] + 9.6 r[6] + 9.8 r[7] + 1.6 r[8]
   + 1.7 r[9] + 8.2 r[10] + 8.2 r[11] + 5.5 r[12] + 5.1 r[13] + 6.3 r[14]
   + 2.7 r[15] + 6.8 r[16] + 5.5 r[17] + 1.2 r[18] + 3.3 r[19] + 5.2 r[20]
   + 3.4 r[21] + 1.9 r[22] + 4.1 r[23] + 5.9 r[24] + 2.7 r[25] + 8.1 r[26]
   + 6.2 r[27] + 5.6 r[28] + 9.4 r[29] + 8.8 r[30] + 3.4 r[31] + 0.2 r[32]
   + 2 r[33] + 8.7 r[34] + 4.4 r[35] + 0.7 r[36] + 4.7 r[37] + 5.9 r[38]
   + 5.3 r[39] + 3.8 r[40] + 8 r[41] + 3.3 r[42] + 0.4 r[43] + 9.4 r[44]
   + 4.1 r[45] + 3.6 r[46] + 1.2 r[47] + 9 r[48] + 1.5 r[49] + 3.7 r[50]
   + 5.5 r[51] + 6.8 r[52] + 5.9 r[53] + 6.3 r[54] + 5.8 r[55] + 4.4 r[56]
   + 3.3 r[57] + 9.1 r[58] + 2.9 r[59] + 9.5 r[60] + 2.9 r[61] + 5 r[62]
   + 4.9 r[63] + 3.8 r[64] + 8.3 r[65] + 0.3 r[66] + 8.5 r[67] + 1.1 r[68]
   + 6.4 r[69] + 6.8 r[70] + 6.4 r[71] + 8.1 r[72] + 9 r[73] + 3.4 r[74]
   + 9.5 r[75] + 8.1 r[76] + 5.8 r[77] + 2.7 r[78] + 9.7 r[79] + 2 r[80]
   + 0.8 r[81] + 2.1 r[82] + 4 r[83] + 4 r[84] + 4 r[85] + 6.2 r[86]
   + 7.1 r[87] + 2.9 r[88] + 4.2 r[89] + 1.9 r[90] + 9.1 r[91] + 5.5 r[92]
   + 2.6 r[93] + 5.9 r[94] + 6.8 r[95] + 4.8 r[96] + 7.9 r[97] + 7.9 r[98]
   + 2.3 r[99] <= 492
 primal_lower: 2.342308710956025 x[0] + 2.151448124900524 x[1]
   + 2.12798803176136 x[2] + 3.791083084045864 x[3]
   + 1.223502864807034 x[4] + 3.400628780376066 x[5]
   + 0.7131852890415126 x[6] + 4.34770082753683 x[7]
   + 3.991092719274894 x[8] + 0.4613076523129997 x[9]
   + 3.186126446231565 x[10] + 0.5547036521073462 x[11]
   + 0.6258028104719812 x[12] + 2.570623741097159 x[13]
   + 0.3721532939466986 x[14] + 2.076825801841252 x[15]
   + 0.7326130283261759 x[16] + 2.185802329465856 x[17]
   + 3.546067847842515 x[18] + 2.254816670189668 x[19]
   + 2.029814687886004 x[20] + 3.324451913348517 x[21]
   + 1.3336957175019 x[22] + 3.027519359538016 x[23]
   + 3.546035646134855 x[24] + 3.004016611198444 x[25]
   + 1.991791165522768 x[26] + 1.737598490355489 x[27]
   + 1.494068680601284 x[28] + 0.5575316674450311 x[29]
   + 4.443962017297008 x[30] + 3.339600558894734 x[31]
   + 0.4223518070445689 x[32] + 0.0695976641116716 x[33]
   + 1.027605581351451 x[34] + 4.292572980857584 x[35]
   + 0.2909534423675189 x[36] + 2.211770169386266 x[37]
   + 2.547972997521936 x[38] + 0.1308332302513124 x[39]
   + 1.361672198646688 x[40] + 4.668786653190747 x[41]
   + 1.424888491633482 x[42] + 2.12892911835452 x[43]
   + 3.268914086786186 x[44] + 2.719594776697208 x[45]
   + 3.120686289488529 x[46] + 3.851150026857544 x[47]
   + 0.9056586840577576 x[48] + 2.48977954796578 x[49]
   + 2.049697963865154 x[50] + 3.133254131310125 x[51]
   + 2.515219789111446 x[52] + 3.133348285970703 x[53]
   + 0.8990159885442417 x[54] + 3.556021235426206 x[55]
   + 4.461193958747269 x[56] + 3.750115466618533 x[57]
   + 3.163080376689819 x[58] + 3.636463747554323 x[59]
   + 4.213982538681043 x[60] + 1.157786214621383 x[61]
   + 2.469087648746475 x[62] + 3.979665495664785 x[63]
   + 1.256917183405678 x[64] + 3.787840298829609 x[65]
   + 3.573661365081928 x[66] + 3.584647216850335 x[67]
   + 3.329702457937978 x[68] + 2.189630021910997 x[69]
   + 3.065023296721273 x[70] + 0.5709361953632472 x[71]
   + 2.79790588298667 x[72] + 3.615960187939031 x[73]
   + 0.8034984774416477 x[74] + 2.019306549188759 x[75]
   + 3.134572832001052 x[76] + 3.143505042465109 x[77]
   + 2.880460483252443 x[78] + 4.537669314161873 x[79]
   + 3.146216315475459 x[80] + 2.507145758178585 x[81]
   + 3.671350108245876 x[82] + 3.947937638194668 x[83]
   + 3.534766115694211 x[84] + 0.6286516867353262 x[85]
   + 1.449741114558599 x[86] + 0.4472336931858465 x[87]
   + 1.994121453484676 x[88] + 1.706090899159717 x[89]
   + 2.322531327570585 x[90] + 0.9771139320627081 x[91]
   + 0.5588199362717846 x[92] + 1.139979844512863 x[93]
   + 1.399958386575691 x[94] + 1.279863342522538 x[95]
   + 3.406249555075498 x[96] + 2.861350698060559 x[97]
   + 2.198360654777166 x[98] + 0.2798258005589299 x[99] + 42 u[0] + 38 u[1]
   + 28 u[2] + 25 u[3] + 30 u[4] + 52 u[5] + 55 u[6] + 6 u[7] + 39 u[8]
   + 28 u[9] + 26 u[10] + 17 u[11] + 78 u[12] + 46 u[13] + 63 u[14]
   + 67 u[15] + 19 u[16] + 86 u[17] + 31 u[18] + 28 u[19] + 47 u[20]
   + 62 u[21] + 94 u[22] + 97 u[23] + 55 u[24] + 62 u[25] + 20 u[26]
   + 66 u[27] + 68 u[28] + 37 u[29] + 80 u[30] + 90 u[31] + 94 u[32]
   + 83 u[33] + 94 u[34] + 71 u[35] + 38 u[36] + 43 u[37] + 22 u[38]
   + 97 u[39] + 65 u[40] + 84 u[41] + 96 u[42] + 20 u[43] + 81 u[44]
   + 81 u[45] + 92 u[46] + 92 u[47] + 29 u[48] + 18 u[49] + 73 u[50]
   + 30 u[51] + 35 u[52] + 70 u[53] + 95 u[54] + 90 u[55] + 15 u[56]
   + 37 u[57] + 90 u[58] + 32 u[59] + 11 u[60] + 25 u[61] + 74 u[62]
   + 5 u[63] + 54 u[64] + 26 u[65] + 15 u[66] + 49 u[67] + 14 u[68]
   + 56 u[69] + 20 u[70] + 96 u[71] + 92 u[72] + 37 u[73] + 30 u[74]
   + 83 u[75] + 65 u[76] + 77 u[77] + 31 u[78] + 29 u[79] + 8 u[80]
   + 40 u[81] + 25 u[82] + 80 u[83] + 24 u[84] + 28 u[85] + 10 u[86]
   + 38 u[87] + 60 u[88] + 13 u[89] + 55 u[90] + 11 u[91] + 43 u[92]
   + 70 u[93] + 26 u[94] + 15 u[95] + 27 u[96] + 47 u[97] + 50 u[98]
   + 38 u[99] <= 23534
 mccormick1[0]: - u[0] + r[0] <= 0
 mccormick1[1]: - u[1] + r[1] <= 0
 mccormick1[2]: - u[2] + r[2] <= 0
 mccormick1[3]: - u[3] + r[3] <= 0
 mccormick1[4]: - u[4] + r[4] <= 0
 mccormick1[5]: - u[5] + r[5] <= 0
 mccormick1[6]: - u[6] + r[6] <= 0
 mccormick1[7]: - u[7] + r[7] <= 0
 mccormick1[8]: - u[8] + r[8] <= 0
 mccormick1[9]: - u[9] + r[9] <= 0
 mccormick1[10]: - u[10] + r[10] <= 0
 mccormick1[11]: - u[11] + r[11] <= 0
 mccormick1[12]: - u[12] + r[12] <= 0
 mccormick1[13]: - u[13] + r[13] <= 0
 mccormick1[14]: - u[14] + r[14] <= 0
 mccormick1[15]: - u[15] + r[15] <= 0
 mccormick1[16]: - u[16] + r[16] <= 0
 mccormick1[17]: - u[17] + r[17] <= 0
 mccormick1[18]: - u[18] + r[18] <= 0
 mccormick1[19]: - u[19] + r[19] <= 0
 mccormick1[20]: - u[20] + r[20] <= 0
 mccormick1[21]: - u[21] + r[21] <= 0
 mccormick1[22]: - u[22] + r[22] <= 0
 mccormick1[23]: - u[23] + r[23] <= 0
 mccormick1[24]: - u[24] + r[24] <= 0
 mccormick1[25]: - u[25] + r[25] <= 0
 mccormick1[26]: - u[26] + r[26] <= 0
 mccormick1[27]: - u[27] + r[27] <= 0
 mccormick1[28]: - u[28] + r[28] <= 0
 mccormick1[29]: - u[29] + r[29] <= 0
 mccormick1[30]: - u[30] + r[30] <= 0
 mccormick1[31]: - u[31] + r[31] <= 0
 mccormick1[32]: - u[32] + r[32] <= 0
 mccormick1[33]: - u[33] + r[33] <= 0
 mccormick1[34]: - u[34] + r[34] <= 0
 mccormick1[35]: - u[35] + r[35] <= 0
 mccormick1[36]: - u[36] + r[36] <= 0
 mccormick1[37]: - u[37] + r[37] <= 0
 mccormick1[38]: - u[38] + r[38] <= 0
 mccormick1[39]: - u[39] + r[39] <= 0
 mccormick1[40]: - u[40] + r[40] <= 0
 mccormick1[41]: - u[41] + r[41] <= 0
 mccormick1[42]: - u[42] + r[42] <= 0
 mccormick1[43]: - u[43] + r[43] <= 0
 mccormick1[44]: - u[44] + r[44] <= 0
 mccormick1[45]: - u[45] + r[45] <= 0
 mccormick1[46]: - u[46] + r[46] <= 0
 mccormick1[47]: - u[47] + r[47] <= 0
 mccormick1[48]: - u[48] + r[48] <= 0
 mccormick1[49]: - u[49] + r[49] <= 0
 mccormick1[50]: - u[50] + r[50] <= 0
 mccormick1[51]: - u[51] + r[51] <= 0
 mccormick1[52]: - u[52] + r[52] <= 0
 mccormick1[53]: - u[53] + r[53] <= 0
 mccormick1[54]: - u[54] + r[54] <= 0
 mccormick1[55]: - u[55] + r[55] <= 0
 mccormick1[56]: - u[56] + r[56] <= 0
 mccormick1[57]: - u[57] + r[57] <= 0
 mccormick1[58]: - u[58] + r[58] <= 0
 mccormick1[59]: - u[59] + r[59] <= 0
 mccormick1[60]: - u[60] + r[60] <= 0
 mccormick1[61]: - u[61] + r[61] <= 0
 mccormick1[62]: - u[62] + r[62] <= 0
 mccormick1[63]: - u[63] + r[63] <= 0
 mccormick1[64]: - u[64] + r[64] <= 0
 mccormick1[65]: - u[65] + r[65] <= 0
 mccormick1[66]: - u[66] + r[66] <= 0
 mccormick1[67]: - u[67] + r[67] <= 0
 mccormick1[68]: - u[68] + r[68] <= 0
 mccormick1[69]: - u[69] + r[69] <= 0
 mccormick1[70]: - u[70] + r[70] <= 0
 mccormick1[71]: - u[71] + r[71] <= 0
 mccormick1[72]: - u[72] + r[72] <= 0
 mccormick1[73]: - u[73] + r[73] <= 0
 mccormick1[74]: - u[74] + r[74] <= 0
 mccormick1[75]: - u[75] + r[75] <= 0
 mccormick1[76]: - u[76] + r[76] <= 0
 mccormick1[77]: - u[77] + r[77] <= 0
 mccormick1[78]: - u[78] + r[78] <= 0
 mccormick1[79]: - u[79] + r[79] <= 0
 mccormick1[80]: - u[80] + r[80] <= 0
 mccormick1[81]: - u[81] + r[81] <= 0
 mccormick1[82]: - u[82] + r[82] <= 0
 mccormick1[83]: - u[83] + r[83] <= 0
 mccormick1[84]: - u[84] + r[84] <= 0
 mccormick1[85]: - u[85] + r[85] <= 0
 mccormick1[86]: - u[86] + r[86] <= 0
 mccormick1[87]: - u[87] + r[87] <= 0
 mccormick1[88]: - u[88] + r[88] <= 0
 mccormick1[89]: - u[89] + r[89] <= 0
 mccormick1[90]: - u[90] + r[90] <= 0
 mccormick1[91]: - u[91] + r[91] <= 0
 mccormick1[92]: - u[92] + r[92] <= 0
 mccormick1[93]: - u[93] + r[93] <= 0
 mccormick1[94]: - u[94] + r[94] <= 0
 mccormick1[95]: - u[95] + r[95] <= 0
 mccormick1[96]: - u[96] + r[96] <= 0
 mccormick1[97]: - u[97] + r[97] <= 0
 mccormick1[98]: - u[98] + r[98] <= 0
 mccormick1[99]: - u[99] + r[99] <= 0
 mccormick2[0]: - x[0] + r[0] <= 0
 mccormick2[1]: - x[1] + r[1] <= 0
 mccormick2[2]: - x[2] + r[2] <= 0
 mccormick2[3]: - x[3] + r[3] <= 0
 mccormick2[4]: - x[4] + r[4] <= 0
 mccormick2[5]: - x[5] + r[5] <= 0
 mccormick2[6]: - x[6] + r[6] <= 0
 mccormick2[7]: - x[7] + r[7] <= 0
 mccormick2[8]: - x[8] + r[8] <= 0
 mccormick2[9]: - x[9] + r[9] <= 0
 mccormick2[10]: - x[10] + r[10] <= 0
 mccormick2[11]: - x[11] + r[11] <= 0
 mccormick2[12]: - x[12] + r[12] <= 0
 mccormick2[13]: - x[13] + r[13] <= 0
 mccormick2[14]: - x[14] + r[14] <= 0
 mccormick2[15]: - x[15] + r[15] <= 0
 mccormick2[16]: - x[16] + r[16] <= 0
 mccormick2[17]: - x[17] + r[17] <= 0
 mccormick2[18]: - x[18] + r[18] <= 0
 mccormick2[19]: - x[19] + r[19] <= 0
 mccormick2[20]: - x[20] + r[20] <= 0
 mccormick2[21]: - x[21] + r[21] <= 0
 mccormick2[22]: - x[22] + r[22] <= 0
 mccormick2[23]: - x[23] + r[23] <= 0
 mccormick2[24]: - x[24] + r[24] <= 0
 mccormick2[25]: - x[25] + r[25] <= 0
 mccormick2[26]: - x[26] + r[26] <= 0
 mccormick2[27]: - x[27] + r[27] <= 0
 mccormick2[28]: - x[28] + r[28] <= 0
 mccormick2[29]: - x[29] + r[29] <= 0
 mccormick2[30]: - x[30] + r[30] <= 0
 mccormick2[31]: - x[31] + r[31] <= 0
 mccormick2[32]: - x[32] + r[32] <= 0
 mccormick2[33]: - x[33] + r[33] <= 0
 mccormick2[34]: - x[34] + r[34] <= 0
 mccormick2[35]: - x[35] + r[35] <= 0
 mccormick2[36]: - x[36] + r[36] <= 0
 mccormick2[37]: - x[37] + r[37] <= 0
 mccormick2[38]: - x[38] + r[38] <= 0
 mccormick2[39]: - x[39] + r[39] <= 0
 mccormick2[40]: - x[40] + r[40] <= 0
 mccormick2[41]: - x[41] + r[41] <= 0
 mccormick2[42]: - x[42] + r[42] <= 0
 mccormick2[43]: - x[43] + r[43] <= 0
 mccormick2[44]: - x[44] + r[44] <= 0
 mccormick2[45]: - x[45] + r[45] <= 0
 mccormick2[46]: - x[46] + r[46] <= 0
 mccormick2[47]: - x[47] + r[47] <= 0
 mccormick2[48]: - x[48] + r[48] <= 0
 mccormick2[49]: - x[49] + r[49] <= 0
 mccormick2[50]: - x[50] + r[50] <= 0
 mccormick2[51]: - x[51] + r[51] <= 0
 mccormick2[52]: - x[52] + r[52] <= 0
 mccormick2[53]: - x[53] + r[53] <= 0
 mccormick2[54]: - x[54] + r[54] <= 0
 mccormick2[55]: - x[55] + r[55] <= 0
 mccormick2[56]: - x[56] + r[56] <= 0
 mccormick2[57]: - x[57] + r[57] <= 0
 mccormick2[58]: - x[58] + r[58] <= 0
 mccormick2[59]: - x[59] + r[59] <= 0
 mccormick2[60]: - x[60] + r[60] <= 0
 mccormick2[61]: - x[61] + r[61] <= 0
 mccormick2[62]: - x[62] + r[62] <= 0
 mccormick2[63]: - x[63] + r[63] <= 0
 mccormick2[64]: - x[64] + r[64] <= 0
 mccormick2[65]: - x[65] + r[65] <= 0
 mccormick2[66]: - x[66] + r[66] <= 0
 mccormick2[67]: - x[67] + r[67] <= 0
 mccormick2[68]: - x[68] + r[68] <= 0
 mccormick2[69]: - x[69] + r[69] <= 0
 mccormick2[70]: - x[70] + r[70] <= 0
 mccormick2[71]: - x[71] + r[71] <= 0
 mccormick2[72]: - x[72] + r[72] <= 0
 mccormick2[73]: - x[73] + r[73] <= 0
 mccormick2[74]: - x[74] + r[74] <= 0
 mccormick2[75]: - x[75] + r[75] <= 0
 mccormick2[76]: - x[76] + r[76] <= 0
 mccormick2[77]: - x[77] + r[77] <= 0
 mccormick2[78]: - x[78] + r[78] <= 0
 mccormick2[79]: - x[79] + r[79] <= 0
 mccormick2[80]: - x[80] + r[80] <= 0
 mccormick2[81]: - x[81] + r[81] <= 0
 mccormick2[82]: - x[82] + r[82] <= 0
 mccormick2[83]: - x[83] + r[83] <= 0
 mccormick2[84]: - x[84] + r[84] <= 0
 mccormick2[85]: - x[85] + r[85] <= 0
 mccormick2[86]: - x[86] + r[86] <= 0
 mccormick2[87]: - x[87] + r[87] <= 0
 mccormick2[88]: - x[88] + r[88] <= 0
 mccormick2[89]: - x[89] + r[89] <= 0
 mccormick2[90]: - x[90] + r[90] <= 0
 mccormick2[91]: - x[91] + r[91] <= 0
 mccormick2[92]: - x[92] + r[92] <= 0
 mccormick2[93]: - x[93] + r[93] <= 0
 mccormick2[94]: - x[94] + r[94] <= 0
 mccormick2[95]: - x[95] + r[95] <= 0
 mccormick2[96]: - x[96] + r[96] <= 0
 mccormick2[97]: - x[97] + r[97] <= 0
 mccormick2[98]: - x[98] + r[98] <= 0
 mccormick2[99]: - x[99] + r[99] <= 0
 mccormick3[0]: x[0] + u[0] - r[0] <= 1
 mccormick3[1]: x[1] + u[1] - r[1] <= 1
 mccormick3[2]: x[2] + u[2] - r[2] <= 1
 mccormick3[3]: x[3] + u[3] - r[3] <= 1
 mccormick3[4]: x[4] + u[4] - r[4] <= 1
 mccormick3[5]: x[5] + u[5] - r[5] <= 1
 mccormick3[6]: x[6] + u[6] - r[6] <= 1
 mccormick3[7]: x[7] + u[7] - r[7] <= 1
 mccormick3[8]: x[8] + u[8] - r[8] <= 1
 mccormick3[9]: x[9] + u[9] - r[9] <= 1
 mccormick3[10]: x[10] + u[10] - r[10] <= 1
 mccormick3[11]: x[11] + u[11] - r[11] <= 1
 mccormick3[12]: x[12] + u[12] - r[12] <= 1
 mccormick3[13]: x[13] + u[13] - r[13] <= 1
 mccormick3[14]: x[14] + u[14] - r[14] <= 1
 mccormick3[15]: x[15] + u[15] - r[15] <= 1
 mccormick3[16]: x[16] + u[16] - r[16] <= 1
 mccormick3[17]: x[17] + u[17] - r[17] <= 1
 mccormick3[18]: x[18] + u[18] - r[18] <= 1
 mccormick3[19]: x[19] + u[19] - r[19] <= 1
 mccormick3[20]: x[20] + u[20] - r[20] <= 1
 mccormick3[21]: x[21] + u[21] - r[21] <= 1
 mccormick3[22]: x[22] + u[22] - r[22] <= 1
 mccormick3[23]: x[23] + u[23] - r[23] <= 1
 mccormick3[24]: x[24] + u[24] - r[24] <= 1
 mccormick3[25]: x[25] + u[25] - r[25] <= 1
 mccormick3[26]: x[26] + u[26] - r[26] <= 1
 mccormick3[27]: x[27] + u[27] - r[27] <= 1
 mccormick3[28]: x[28] + u[28] - r[28] <= 1
 mccormick3[29]: x[29] + u[29] - r[29] <= 1
 mccormick3[30]: x[30] + u[30] - r[30] <= 1
 mccormick3[31]: x[31] + u[31] - r[31] <= 1
 mccormick3[32]: x[32] + u[32] - r[32] <= 1
 mccormick3[33]: x[33] + u[33] - r[33] <= 1
 mccormick3[34]: x[34] + u[34] - r[34] <= 1
 mccormick3[35]: x[35] + u[35] - r[35] <= 1
 mccormick3[36]: x[36] + u[36] - r[36] <= 1
 mccormick3[37]: x[37] + u[37] - r[37] <= 1
 mccormick3[38]: x[38] + u[38] - r[38] <= 1
 mccormick3[39]: x[39] + u[39] - r[39] <= 1
 mccormick3[40]: x[40] + u[40] - r[40] <= 1
 mccormick3[41]: x[41] + u[41] - r[41] <= 1
 mccormick3[42]: x[42] + u[42] - r[42] <= 1
 mccormick3[43]: x[43] + u[43] - r[43] <= 1
 mccormick3[44]: x[44] + u[44] - r[44] <= 1
 mccormick3[45]: x[45] + u[45] - r[45] <= 1
 mccormick3[46]: x[46] + u[46] - r[46] <= 1
 mccormick3[47]: x[47] + u[47] - r[47] <= 1
 mccormick3[48]: x[48] + u[48] - r[48] <= 1
 mccormick3[49]: x[49] + u[49] - r[49] <= 1
 mccormick3[50]: x[50] + u[50] - r[50] <= 1
 mccormick3[51]: x[51] + u[51] - r[51] <= 1
 mccormick3[52]: x[52] + u[52] - r[52] <= 1
 mccormick3[53]: x[53] + u[53] - r[53] <= 1
 mccormick3[54]: x[54] + u[54] - r[54] <= 1
 mccormick3[55]: x[55] + u[55] - r[55] <= 1
 mccormick3[56]: x[56] + u[56] - r[56] <= 1
 mccormick3[57]: x[57] + u[57] - r[57] <= 1
 mccormick3[58]: x[58] + u[58] - r[58] <= 1
 mccormick3[59]: x[59] + u[59] - r[59] <= 1
 mccormick3[60]: x[60] + u[60] - r[60] <= 1
 mccormick3[61]: x[61] + u[61] - r[61] <= 1
 mccormick3[62]: x[62] + u[62] - r[62] <= 1
 mccormick3[63]: x[63] + u[63] - r[63] <= 1
 mccormick3[64]: x[64] + u[64] - r[64] <= 1
 mccormick3[65]: x[65] + u[65] - r[65] <= 1
 mccormick3[66]: x[66] + u[66] - r[66] <= 1
 mccormick3[67]: x[67] + u[67] - r[67] <= 1
 mccormick3[68]: x[68] + u[68] - r[68] <= 1
 mccormick3[69]: x[69] + u[69] - r[69] <= 1
 mccormick3[70]: x[70] + u[70] - r[70] <= 1
 mccormick3[71]: x[71] + u[71] - r[71] <= 1
 mccormick3[72]: x[72] + u[72] - r[72] <= 1
 mccormick3[73]: x[73] + u[73] - r[73] <= 1
 mccormick3[74]: x[74] + u[74] - r[74] <= 1
 mccormick3[75]: x[75] + u[75] - r[75] <= 1
 mccormick3[76]: x[76] + u[76] - r[76] <= 1
 mccormick3[77]: x[77] + u[77] - r[77] <= 1
 mccormick3[78]: x[78] + u[78] - r[78] <= 1
 mccormick3[79]: x[79] + u[79] - r[79] <= 1
 mccormick3[80]: x[80] + u[80] - r[80] <= 1
 mccormick3[81]: x[81] + u[81] - r[81] <= 1
 mccormick3[82]: x[82] + u[82] - r[82] <= 1
 mccormick3[83]: x[83] + u[83] - r[83] <= 1
 mccormick3[84]: x[84] + u[84] - r[84] <= 1
 mccormick3[85]: x[85] + u[85] - r[85] <= 1
 mccormick3[86]: x[86] + u[86] - r[86] <= 1
 mccormick3[87]: x[87] + u[87] - r[87] <= 1
 mccormick3[88]: x[88] + u[88] - r[88] <= 1
 mccormick3[89]: x[89] + u[89] - r[89] <= 1
 mccormick3[90]: x[90] + u[90] - r[90] <= 1
 mccormick3[91]: x[91] + u[91] - r[91] <= 1
 mccormick3[92]: x[92] + u[92] - r[92] <= 1
 mccormick3[93]: x[93] + u[93] - r[93] <= 1
 mccormick3[94]: x[94] + u[94] - r[94] <= 1
 mccormick3[95]: x[95] + u[95] - r[95] <= 1
 mccormick3[96]: x[96] + u[96] - r[96] <= 1
 mccormick3[97]: x[97] + u[97] - r[97] <= 1
 mccormick3[98]: x[98] + u[98] - r[98] <= 1
 mccormick3[99]: x[99] + u[99] - r[99] <= 1
Bounds
Binaries
 x[0] x[1] x[2] x[3] x[4] x[5] x[6] x[7] x[8] x[9] x[10] x[11] x[12] x[13]
 x[14] x[15] x[16] x[17] x[18] x[19] x[20] x[21] x[22] x[23] x[24] x[25]
 x[26] x[27] x[28] x[29] x[30] x[31] x[32] x[33] x[34] x[35] x[36] x[37]
 x[38] x[39] x[40] x[41] x[42] x[43] x[44] x[45] x[46] x[47] x[48] x[49]
 x[50] x[51] x[52] x[53] x[54] x[55] x[56] x[57] x[58] x[59] x[60] x[61]
 x[62] x[63] x[64] x[65] x[66] x[67] x[68] x[69] x[70] x[71] x[72] x[73]
 x[74] x[75] x[76] x[77] x[78] x[79] x[80] x[81] x[82] x[83] x[84] x[85]
 x[86] x[87] x[88] x[89] x[90] x[91] x[92] x[93] x[94] x[95] x[96] x[97]
 x[98] x[99] u[0] u[1] u[2] u[3] u[4] u[5] u[6] u[7] u[8] u[9] u[10] u[11]
 u[12] u[13] u[14] u[15] u[16] u[17] u[18] u[19] u[20] u[21] u[22] u[23]
 u[24] u[25] u[26] u[27] u[28] u[29] u[30] u[31] u[32] u[33] u[34] u[35]
 u[36] u[37] u[38] u[39] u[40] u[41] u[42] u[43] u[44] u[45] u[46] u[47]
 u[48] u[49] u[50] u[51] u[52] u[53] u[54] u[55] u[56] u[57] u[58] u[59]
 u[60] u[61] u[62] u[63] u[64] u[65] u[66] u[67] u[68] u[69] u[70] u[71]
 u[72] u[73] u[74] u[75] u[76] u[77] u[78] u[79] u[80] u[81] u[82] u[83]
 u[84] u[85] u[86] u[87] u[88] u[89] u[90] u[91] u[92] u[93] u[94] u[95]
 u[96] u[97] u[98] u[99] r[0] r[1] r[2] r[3] r[4] r[5] r[6] r[7] r[8] r[9]
 r[10] r[11] r[12] r[13] r[14] r[15] r[16] r[17] r[18] r[19] r[20] r[21]
 r[22] r[23] r[24] r[25] r[26] r[27] r[28] r[29] r[30] r[31] r[32] r[33]
 r[34] r[35] r[36] r[37] r[38] r[39] r[40] r[41] r[42] r[43] r[44] r[45]
 r[46] r[47] r[48] r[49] r[50] r[51] r[52] r[53] r[54] r[55] r[56] r[57]
 r[58] r[59] r[60] r[61] r[62] r[63] r[64] r[65] r[66] r[67] r[68] r[69]
 r[70] r[71] r[72] r[73] r[74] r[75] r[76] r[77] r[78] r[79] r[80] r[81]
 r[82] r[83] r[84] r[85] r[86] r[87] r[88] r[89] r[90] r[91] r[92] r[93]
 r[94] r[95] r[96] r[97] r[98] r[99]
End
