instances/knapsack/discrete/knapsack_100_17.kp
20131
100
492

86 8.6 7
27 2.7 23
77 7.7 57
34 3.4 65
43 4.3 38
84 8.4 54
96 9.6 30
98 9.8 4
16 1.6 95
17 1.7 51
82 8.2 56
82 8.2 76
55 5.5 100
51 5.1 67
63 6.3 48
27 2.7 57
68 6.8 71
55 5.5 83
12 1.2 75
33 3.3 18
52 5.2 42
34 3.4 52
19 1.9 9
41 4.1 57
59 5.9 22
27 2.7 67
81 8.1 33
62 6.2 96
56 5.6 47
94 9.4 1
88 8.8 74
34 3.4 69
2 0.2 81
20 2.0 80
87 8.7 8
44 4.4 26
7 0.7 18
47 4.7 100
59 5.9 19
53 5.3 16
38 3.8 49
80 8.0 14
33 3.3 70
4 0.4 72
94 9.4 43
41 4.1 44
36 3.6 53
12 1.2 49
90 9.0 73
15 1.5 54
37 3.7 88
55 5.5 67
68 6.8 28
59 5.9 18
63 6.3 45
58 5.8 55
44 4.4 51
33 3.3 65
91 9.1 13
29 2.9 44
95 9.5 61
29 2.9 15
50 5.0 34
49 4.9 90
38 3.8 35
83 8.3 70
3 0.3 74
85 8.5 50
11 1.1 5
64 6.4 50
68 6.8 22
64 6.4 24
81 8.1 34
90 9.0 74
34 3.4 11
95 9.5 75
81 8.1 39
58 5.8 86
27 2.7 61
97 9.7 52
20 2.0 44
8 0.8 43
21 2.1 74
40 4.0 83
40 4.0 22
40 4.0 45
62 6.2 55
71 7.1 44
29 2.9 65
42 4.2 47
19 1.9 63
91 9.1 98
55 5.5 6
26 2.6 69
59 5.9 49
68 6.8 39
48 4.8 46
79 7.9 29
79 7.9 21
23 2.3 37

23534
471

[2.342308710956025 2.1514481249005235 2.12798803176136 3.7910830840458636 1.223502864807034 3.400628780376066 0.7131852890415126 4.34770082753683 3.991092719274894 0.46130765231299975 3.1861264462315653 0.5547036521073462 0.6258028104719812 2.5706237410971586 0.3721532939466986 2.076825801841252 0.7326130283261759 2.1858023294658557 3.546067847842515 2.2548166701896677 2.029814687886004 3.3244519133485166 1.3336957175019004 3.027519359538016 3.5460356461348552 3.0040166111984443 1.9917911655227678 1.7375984903554889 1.4940686806012842 0.5575316674450311 4.443962017297008 3.3396005588947344 0.42235180704456887 0.06959766411167158 1.0276055813514506 4.292572980857584 0.2909534423675189 2.211770169386266 2.547972997521936 0.13083323025131235 1.3616721986466875 4.668786653190747 1.4248884916334819 2.12892911835452 3.268914086786186 2.719594776697208 3.120686289488529 3.851150026857544 0.9056586840577576 2.48977954796578 2.0496979638651536 3.1332541313101245 2.515219789111446 3.133348285970703 0.8990159885442417 3.556021235426206 4.461193958747269 3.750115466618533 3.1630803766898192 3.636463747554323 4.213982538681043 1.1577862146213826 2.4690876487464752 3.9796654956647846 1.2569171834056785 3.7878402988296087 3.573661365081928 3.5846472168503354 3.3297024579379784 2.1896300219109968 3.0650232967212734 0.5709361953632472 2.7979058829866696 3.615960187939031 0.8034984774416477 2.019306549188759 3.1345728320010524 3.143505042465109 2.8804604832524427 4.537669314161873 3.1462163154754585 2.5071457581785848 3.6713501082458757 3.947937638194668 3.5347661156942105 0.6286516867353262 1.449741114558599 0.44723369318584655 1.994121453484676 1.7060908991597166 2.322531327570585 0.9771139320627081 0.5588199362717846 1.1399798445128633 1.3999583865756913 1.279863342522538 3.4062495550754983 2.8613506980605585 2.1983606547771664 0.27982580055892986]

[42 38 28 25 30 52 55 6 39 28 26 17 78 46 63 67 19 86 31 28 47 62 94 97 55 62 20 66 68 37 80 90 94 83 94 71 38 43 22 97 65 84 96 20 81 81 92 92 29 18 73 30 35 70 95 90 15 37 90 32 11 25 74 5 54 26 15 49 14 56 20 96 92 37 30 83 65 77 31 29 8 40 25 80 24 28 10 38 60 13 55 11 43 70 26 15 27 47 50 38]
